p cnf 21 7
a 1 0
e 2 0
a 3 4 0
e 5 6 7 0
a 8 0
e 9 10 0
a 11 0
e 12 13 0
a 14 15 16 17 18 0
e 19 0
a 20 0
e 21 0
16 5 8 21 0
20 -21 2 -9 -8 0
-15 14 21 0
11 -12 -1 21 19 0
-12 -9 0
11 21 -7 0
-20 -3 0
